# Solution for model sdp
# Objective value = 49
x[0.0,6.0] 0
x[0.0,10.0] 1
x[6.0,10.0] 2
x[10.0,6.0] 0
x[10.0,11.0] 0
x[16.0,5.0] 3
x[16.0,8.0] 1
x[21.0,9.0] 0
x[24.0,6.0] 0
x[24.0,10.0] 1
x[30.0,10.0] 2
x[34.0,6.0] 0
x[34.0,11.0] 0
x[40.0,5.0] 3
x[40.0,8.0] 1
x[48.0,6.0] 0
x[48.0,10.0] 1
x[54.0,8.0] 0
x[54.0,10.0] 2
x[58.0,6.0] 0
x[58.0,11.0] 0
x[62.0,7.0] 3
x[62.0,10.0] 1
x[64.0,5.0] 0
x[64.0,8.0] 0
x[69.0,9.0] 0
x[72.0,6.0] 0
x[72.0,10.0] 1
x[78.0,10.0] 2
x[82.0,6.0] 0
x[82.0,11.0] 0
x[88.0,5.0] 3
x[88.0,8.0] 1
x[96.0,6.0] 0
x[96.0,10.0] 1
x[102.0,10.0] 2
x[106.0,6.0] 0
x[106.0,11.0] 0
x[112.0,5.0] 4
x[112.0,8.0] 0
x[117.0,11.0] 1
x[120.0,8.0] 0
x[128.0,7.0] 2
x[128.0,12.0] 3
x[135.0,5.0] 0
x[135.0,7.0] 1
x[135.0,9.0] 1
x[144.0,8.0] 1
x[152.0,7.0] 2
x[152.0,12.0] 3
x[159.0,5.0] 0
x[159.0,7.0] 1
x[159.0,9.0] 1
y[0.0,6.0] 0
y[0.0,10.0] 1
y[6.0,10.0] 1
y[10.0,6.0] 0
y[10.0,11.0] 0
y[16.0,5.0] 1
y[16.0,8.0] 1
y[21.0,9.0] 0
y[24.0,6.0] 0
y[24.0,10.0] 1
y[30.0,10.0] 1
y[34.0,6.0] 0
y[34.0,11.0] 0
y[40.0,5.0] 1
y[40.0,8.0] 1
y[48.0,6.0] 0
y[48.0,10.0] 1
y[54.0,8.0] 0
y[54.0,10.0] 1
y[58.0,6.0] 0
y[58.0,11.0] 0
y[62.0,7.0] 1
y[62.0,10.0] 1
y[64.0,5.0] 0
y[64.0,8.0] 0
y[69.0,9.0] 0
y[72.0,6.0] 0
y[72.0,10.0] 1
y[78.0,10.0] 1
y[82.0,6.0] 0
y[82.0,11.0] 0
y[88.0,5.0] 1
y[88.0,8.0] 1
y[96.0,6.0] 0
y[96.0,10.0] 1
y[102.0,10.0] 1
y[106.0,6.0] 0
y[106.0,11.0] 0
y[112.0,5.0] 1
y[112.0,8.0] 0
y[117.0,11.0] 1
y[120.0,8.0] 0
y[128.0,7.0] 1
y[128.0,12.0] 1
y[135.0,5.0] 0
y[135.0,7.0] 1
y[135.0,9.0] 1
y[144.0,8.0] 1
y[152.0,7.0] 1
y[152.0,12.0] 1
y[159.0,5.0] 0
y[159.0,7.0] 1
y[159.0,9.0] 1
mu[0.0] 0
mu[1.0] 0
mu[2.0] 0
mu[3.0] 0
mu[4.0] 0
mu[5.0] 0
mu[6.0] 0
mu[7.0] 0
mu[8.0] 0
mu[9.0] 0
mu[10.0] 0
mu[11.0] 0
mu[12.0] 0
mu[13.0] 0
mu[14.0] 0
mu[15.0] 0
mu[16.0] 0
mu[17.0] 0
mu[18.0] 0
mu[19.0] 0
mu[20.0] 0
mu[21.0] 0
mu[22.0] 0
mu[23.0] 0
mu[24.0] 0
mu[25.0] 0
mu[26.0] 0
mu[27.0] 0
mu[28.0] 0
mu[29.0] 0
mu[30.0] 0
mu[31.0] 0
mu[32.0] 0
mu[33.0] 0
mu[34.0] 0
mu[35.0] 0
mu[36.0] 0
mu[37.0] 0
mu[38.0] 0
mu[39.0] 0
mu[40.0] 0
mu[41.0] 0
mu[42.0] 0
mu[43.0] 0
mu[44.0] 0
mu[45.0] 0
mu[46.0] 0
mu[47.0] 0
mu[48.0] 0
mu[49.0] 0
mu[50.0] 0
mu[51.0] 0
mu[52.0] 0
mu[53.0] 0
mu[54.0] 0
mu[55.0] 0
mu[56.0] 0
mu[57.0] 0
mu[58.0] 0
mu[59.0] 0
mu[60.0] 0
mu[61.0] 0
mu[62.0] 0
mu[63.0] 0
mu[64.0] 0
mu[65.0] 0
mu[66.0] 0
mu[67.0] 0
mu[68.0] 0
mu[69.0] 0
mu[70.0] 0
mu[71.0] 0
mu[72.0] 0
mu[73.0] 0
mu[74.0] 0
mu[75.0] 0
mu[76.0] 0
mu[77.0] 0
mu[78.0] 0
mu[79.0] 0
mu[80.0] 0
mu[81.0] 0
mu[82.0] 0
mu[83.0] 0
mu[84.0] 0
mu[85.0] 0
mu[86.0] 0
mu[87.0] 0
mu[88.0] 0
mu[89.0] 0
mu[90.0] 0
mu[91.0] 0
mu[92.0] 0
mu[93.0] 0
mu[94.0] 0
mu[95.0] 0
mu[96.0] 0
mu[97.0] 0
mu[98.0] 0
mu[99.0] 0
mu[100.0] 0
mu[101.0] 0
mu[102.0] 0
mu[103.0] 0
mu[104.0] 0
mu[105.0] 0
mu[106.0] 0
mu[107.0] 0
mu[108.0] 0
mu[109.0] 0
mu[110.0] 0
mu[111.0] 0
mu[112.0] 0
mu[113.0] 0
mu[114.0] 0
mu[115.0] 0
mu[116.0] 0
mu[117.0] 0
mu[118.0] 0
mu[119.0] 0
mu[120.0] 0
mu[121.0] 0
mu[122.0] 0
mu[123.0] 0
mu[124.0] 0
mu[125.0] 0
mu[126.0] 0
mu[127.0] 0
mu[128.0] 0
mu[129.0] 0
mu[130.0] 0
mu[131.0] 0
mu[132.0] 0
mu[133.0] 0
mu[134.0] 0
mu[135.0] 0
mu[136.0] 0
mu[137.0] 0
mu[138.0] 0
mu[139.0] 0
mu[140.0] 0
mu[141.0] 0
mu[142.0] 0
mu[143.0] 0
mu[144.0] 0
mu[145.0] 0
mu[146.0] 0
mu[147.0] 0
mu[148.0] 0
mu[149.0] 0
mu[150.0] 0
mu[151.0] 0
mu[152.0] 0
mu[153.0] 0
mu[154.0] 0
mu[155.0] 0
mu[156.0] 0
mu[157.0] 0
mu[158.0] 0
mu[159.0] 0
mu[160.0] 0
mu[161.0] 0
mu[162.0] 0
mu[163.0] 0
mu[164.0] 0
mu[165.0] 0
mu[166.0] 0
mu[167.0] 0
delta_plus[0,0.0] 0
delta_plus[0,1.0] 0
delta_plus[0,2.0] 0
delta_plus[0,3.0] 0
delta_plus[0,4.0] 0
delta_plus[0,5.0] 0
delta_plus[0,6.0] 0
delta_plus[0,7.0] 0
delta_plus[0,8.0] 0
delta_plus[0,9.0] 0
delta_plus[0,10.0] 0
delta_plus[0,11.0] 0
delta_plus[0,12.0] 0
delta_plus[0,13.0] 0
delta_plus[0,14.0] 0
delta_plus[0,15.0] 0
delta_plus[0,16.0] 0
delta_plus[0,17.0] 0
delta_plus[0,18.0] 0
delta_plus[0,19.0] 0
delta_plus[0,20.0] 0
delta_plus[0,21.0] 0
delta_plus[0,22.0] 0
delta_plus[0,23.0] 0
delta_plus[0,24.0] 0
delta_plus[0,25.0] 0
delta_plus[0,26.0] 0
delta_plus[0,27.0] 0
delta_plus[0,28.0] 0
delta_plus[0,29.0] 0
delta_plus[0,30.0] 0
delta_plus[0,31.0] 0
delta_plus[0,32.0] 0
delta_plus[0,33.0] 0
delta_plus[0,34.0] 0
delta_plus[0,35.0] 0
delta_plus[0,36.0] 0
delta_plus[0,37.0] 0
delta_plus[0,38.0] 0
delta_plus[0,39.0] 0
delta_plus[0,40.0] 0
delta_plus[0,41.0] 0
delta_plus[0,42.0] 0
delta_plus[0,43.0] 0
delta_plus[0,44.0] 0
delta_plus[0,45.0] 0
delta_plus[0,46.0] 0
delta_plus[0,47.0] 0
delta_plus[0,48.0] 0
delta_plus[0,49.0] 0
delta_plus[0,50.0] 0
delta_plus[0,51.0] 0
delta_plus[0,52.0] 0
delta_plus[0,53.0] 0
delta_plus[0,54.0] 0
delta_plus[0,55.0] 0
delta_plus[0,56.0] 0
delta_plus[0,57.0] 0
delta_plus[0,58.0] 0
delta_plus[0,59.0] 0
delta_plus[0,60.0] 0
delta_plus[0,61.0] 0
delta_plus[0,62.0] 0
delta_plus[0,63.0] 0
delta_plus[0,64.0] 0
delta_plus[0,65.0] 0
delta_plus[0,66.0] 0
delta_plus[0,67.0] 0
delta_plus[0,68.0] 0
delta_plus[0,69.0] 0
delta_plus[0,70.0] 0
delta_plus[0,71.0] 0
delta_plus[0,72.0] 0
delta_plus[0,73.0] 0
delta_plus[0,74.0] 0
delta_plus[0,75.0] 0
delta_plus[0,76.0] 0
delta_plus[0,77.0] 0
delta_plus[0,78.0] 0
delta_plus[0,79.0] 0
delta_plus[0,80.0] 0
delta_plus[0,81.0] 0
delta_plus[0,82.0] 0
delta_plus[0,83.0] 0
delta_plus[0,84.0] 0
delta_plus[0,85.0] 0
delta_plus[0,86.0] 0
delta_plus[0,87.0] 0
delta_plus[0,88.0] 0
delta_plus[0,89.0] 0
delta_plus[0,90.0] 0
delta_plus[0,91.0] 0
delta_plus[0,92.0] 0
delta_plus[0,93.0] 0
delta_plus[0,94.0] 0
delta_plus[0,95.0] 0
delta_plus[0,96.0] 0
delta_plus[0,97.0] 0
delta_plus[0,98.0] 0
delta_plus[0,99.0] 0
delta_plus[0,100.0] 0
delta_plus[0,101.0] 0
delta_plus[0,102.0] 0
delta_plus[0,103.0] 0
delta_plus[0,104.0] 0
delta_plus[0,105.0] 0
delta_plus[0,106.0] 0
delta_plus[0,107.0] 0
delta_plus[0,108.0] 0
delta_plus[0,109.0] 0
delta_plus[0,110.0] 0
delta_plus[0,111.0] 0
delta_plus[0,112.0] 0
delta_plus[0,113.0] 0
delta_plus[0,114.0] 0
delta_plus[0,115.0] 0
delta_plus[0,116.0] 0
delta_plus[0,117.0] 0
delta_plus[0,118.0] 0
delta_plus[0,119.0] 0
delta_plus[0,120.0] 0
delta_plus[0,121.0] 0
delta_plus[0,122.0] 0
delta_plus[0,123.0] 0
delta_plus[0,124.0] 0
delta_plus[0,125.0] 0
delta_plus[0,126.0] 0
delta_plus[0,127.0] 0
delta_plus[0,128.0] 0
delta_plus[0,129.0] 0
delta_plus[0,130.0] 0
delta_plus[0,131.0] 0
delta_plus[0,132.0] 0
delta_plus[0,133.0] 0
delta_plus[0,134.0] 0
delta_plus[0,135.0] 0
delta_plus[0,136.0] 0
delta_plus[0,137.0] 0
delta_plus[0,138.0] 0
delta_plus[0,139.0] 0
delta_plus[0,140.0] 0
delta_plus[0,141.0] 0
delta_plus[0,142.0] 0
delta_plus[0,143.0] 0
delta_plus[0,144.0] 0
delta_plus[0,145.0] 0
delta_plus[0,146.0] 0
delta_plus[0,147.0] 0
delta_plus[0,148.0] 0
delta_plus[0,149.0] 0
delta_plus[0,150.0] 0
delta_plus[0,151.0] 0
delta_plus[0,152.0] 0
delta_plus[0,153.0] 0
delta_plus[0,154.0] 0
delta_plus[0,155.0] 0
delta_plus[0,156.0] 0
delta_plus[0,157.0] 0
delta_plus[0,158.0] 0
delta_plus[0,159.0] 0
delta_plus[0,160.0] 0
delta_plus[0,161.0] 0
delta_plus[0,162.0] 0
delta_plus[0,163.0] 0
delta_plus[0,164.0] 0
delta_plus[0,165.0] 0
delta_plus[0,166.0] 0
delta_plus[0,167.0] 0
delta_minus[0,0.0] 0
delta_minus[0,1.0] 0
delta_minus[0,2.0] 0
delta_minus[0,3.0] 0
delta_minus[0,4.0] 0
delta_minus[0,5.0] 0
delta_minus[0,6.0] 0
delta_minus[0,7.0] 0
delta_minus[0,8.0] 0
delta_minus[0,9.0] 0
delta_minus[0,10.0] 0
delta_minus[0,11.0] 0
delta_minus[0,12.0] 0
delta_minus[0,13.0] 0
delta_minus[0,14.0] 0
delta_minus[0,15.0] 0
delta_minus[0,16.0] 0
delta_minus[0,17.0] 0
delta_minus[0,18.0] 0
delta_minus[0,19.0] 0
delta_minus[0,20.0] 0
delta_minus[0,21.0] 0
delta_minus[0,22.0] 0
delta_minus[0,23.0] 0
delta_minus[0,24.0] 0
delta_minus[0,25.0] 0
delta_minus[0,26.0] 0
delta_minus[0,27.0] 0
delta_minus[0,28.0] 0
delta_minus[0,29.0] 0
delta_minus[0,30.0] 0
delta_minus[0,31.0] 0
delta_minus[0,32.0] 0
delta_minus[0,33.0] 0
delta_minus[0,34.0] 0
delta_minus[0,35.0] 0
delta_minus[0,36.0] 0
delta_minus[0,37.0] 0
delta_minus[0,38.0] 0
delta_minus[0,39.0] 0
delta_minus[0,40.0] 0
delta_minus[0,41.0] 0
delta_minus[0,42.0] 0
delta_minus[0,43.0] 0
delta_minus[0,44.0] 0
delta_minus[0,45.0] 0
delta_minus[0,46.0] 0
delta_minus[0,47.0] 0
delta_minus[0,48.0] 0
delta_minus[0,49.0] 0
delta_minus[0,50.0] 0
delta_minus[0,51.0] 0
delta_minus[0,52.0] 0
delta_minus[0,53.0] 0
delta_minus[0,54.0] 0
delta_minus[0,55.0] 0
delta_minus[0,56.0] 0
delta_minus[0,57.0] 0
delta_minus[0,58.0] 0
delta_minus[0,59.0] 0
delta_minus[0,60.0] 0
delta_minus[0,61.0] 0
delta_minus[0,62.0] 0
delta_minus[0,63.0] 0
delta_minus[0,64.0] 0
delta_minus[0,65.0] 0
delta_minus[0,66.0] 0
delta_minus[0,67.0] 0
delta_minus[0,68.0] 0
delta_minus[0,69.0] 0
delta_minus[0,70.0] 0
delta_minus[0,71.0] 0
delta_minus[0,72.0] 0
delta_minus[0,73.0] 0
delta_minus[0,74.0] 0
delta_minus[0,75.0] 0
delta_minus[0,76.0] 0
delta_minus[0,77.0] 0
delta_minus[0,78.0] 0
delta_minus[0,79.0] 0
delta_minus[0,80.0] 0
delta_minus[0,81.0] 0
delta_minus[0,82.0] 0
delta_minus[0,83.0] 0
delta_minus[0,84.0] 0
delta_minus[0,85.0] 0
delta_minus[0,86.0] 0
delta_minus[0,87.0] 0
delta_minus[0,88.0] 0
delta_minus[0,89.0] 0
delta_minus[0,90.0] 0
delta_minus[0,91.0] 0
delta_minus[0,92.0] 0
delta_minus[0,93.0] 0
delta_minus[0,94.0] 0
delta_minus[0,95.0] 0
delta_minus[0,96.0] 0
delta_minus[0,97.0] 0
delta_minus[0,98.0] 0
delta_minus[0,99.0] 0
delta_minus[0,100.0] 0
delta_minus[0,101.0] 0
delta_minus[0,102.0] 0
delta_minus[0,103.0] 0
delta_minus[0,104.0] 0
delta_minus[0,105.0] 0
delta_minus[0,106.0] 0
delta_minus[0,107.0] 0
delta_minus[0,108.0] 0
delta_minus[0,109.0] 0
delta_minus[0,110.0] 0
delta_minus[0,111.0] 0
delta_minus[0,112.0] 0
delta_minus[0,113.0] 0
delta_minus[0,114.0] 0
delta_minus[0,115.0] 0
delta_minus[0,116.0] 0
delta_minus[0,117.0] 0
delta_minus[0,118.0] 0
delta_minus[0,119.0] 0
delta_minus[0,120.0] 0
delta_minus[0,121.0] 0
delta_minus[0,122.0] 0
delta_minus[0,123.0] 0
delta_minus[0,124.0] 0
delta_minus[0,125.0] 0
delta_minus[0,126.0] 0
delta_minus[0,127.0] 0
delta_minus[0,128.0] 0
delta_minus[0,129.0] 0
delta_minus[0,130.0] 0
delta_minus[0,131.0] 0
delta_minus[0,132.0] 0
delta_minus[0,133.0] 0
delta_minus[0,134.0] 0
delta_minus[0,135.0] 0
delta_minus[0,136.0] 0
delta_minus[0,137.0] 0
delta_minus[0,138.0] 0
delta_minus[0,139.0] 0
delta_minus[0,140.0] 0
delta_minus[0,141.0] 0
delta_minus[0,142.0] 0
delta_minus[0,143.0] 0
delta_minus[0,144.0] 0
delta_minus[0,145.0] 0
delta_minus[0,146.0] 0
delta_minus[0,147.0] 0
delta_minus[0,148.0] 0
delta_minus[0,149.0] 0
delta_minus[0,150.0] 0
delta_minus[0,151.0] 0
delta_minus[0,152.0] 0
delta_minus[0,153.0] 0
delta_minus[0,154.0] 0
delta_minus[0,155.0] 0
delta_minus[0,156.0] 0
delta_minus[0,157.0] 0
delta_minus[0,158.0] 0
delta_minus[0,159.0] 0
delta_minus[0,160.0] 0
delta_minus[0,161.0] 0
delta_minus[0,162.0] 0
delta_minus[0,163.0] 0
delta_minus[0,164.0] 0
delta_minus[0,165.0] 0
delta_minus[0,166.0] 0
delta_minus[0,167.0] 0
rho_short[16.0,5.0] 1
rho_short[40.0,5.0] 1
rho_short[64.0,5.0] 0
rho_short[88.0,5.0] 1
rho_short[112.0,5.0] 1
rho_short[135.0,5.0] 0
rho_short[159.0,5.0] 0
